column=9;
row=9;
Board=[|0,0,0,0,0,0,0,0,0|4,0,0,0,0,0,0,9,8|9,7,0,0,0,6,0,0,4|6,0,0,5,1,0,8,0,7|0,0,5,9,0,2,0,4,0|0,0,0,0,0,0,6,0,0|0,0,0,3,2,1,4,0,5|0,2,0,0,0,0,0,8,0|0,0,0,8,4,9,0,0,0|];
horizontal=[|0,0,0,0,1,0,0,1|0,0,1,1,0,0,0,1|0,1,0,0,1,0,1,1|0,0,0,0,0,0,0,0|1,0,0,0,0,1,1,0|1,0,0,1,0,0,1,0|1,0,0,1,1,0,0,1|1,0,0,1,0,0,1,0|0,0,0,0,0,0,0,1|];
vertical=[|1,1,1,0,0,1,0,0,0|0,1,0,1,0,1,0,0,0|0,0,1,0,0,0,0,1,0|1,0,0,0,0,1,0,0,0|0,0,0,0,0,0,0,1,0|0,0,0,0,0,0,0,1,0|0,0,0,0,0,0,0,0,0|0,1,0,0,0,0,0,0,1|];
